Minimize

x_0 + x_1 + x_2 + x_3 + x_4 + x_5 + x_6 + x_7 + x_8


Subject To

a0: 5 x_0 + 7 x_1 + 11 x_2 + 13 x_3 + 17 x_4 + 19 x_5 + 23 x_6 + 29 x_7 + 31 x_8 = 495



Bounds


x_0 <= 99
x_1 <= 70
x_2 <= 45
x_3 <= 38
x_4 <= 29
x_5 <= 26
x_6 <= 21
x_7 <= 17
x_8 <= 15




General

 x_0 x_1 x_2 x_3 x_4 x_5 x_6 x_7 x_8



End
